language Essence 1.3
letting nnodes be 50
letting nrings be 37
letting capacity be 37
letting demand be 
{{1, 2},
{1, 5},
{1, 7},
{1, 8},
{1, 12},
{1, 14},
{1, 16},
{1, 17},
{1, 20},
{1, 21},
{1, 22},
{1, 24},
{1, 26},
{1, 27},
{1, 31},
{1, 33},
{1, 36},
{1, 37},
{1, 39},
{1, 41},
{1, 43},
{1, 45},
{1, 47},
{1, 49},
{1, 50},
{2, 3},
{2, 7},
{2, 11},
{2, 13},
{2, 15},
{2, 20},
{2, 21},
{2, 24},
{2, 26},
{2, 29},
{2, 30},
{2, 31},
{2, 33},
{2, 36},
{2, 37},
{2, 38},
{2, 42},
{2, 44},
{2, 46},
{2, 48},
{3, 4},
{3, 6},
{3, 7},
{3, 8},
{3, 10},
{3, 11},
{3, 12},
{3, 15},
{3, 18},
{3, 21},
{3, 23},
{3, 24},
{3, 26},
{3, 28},
{3, 29},
{3, 30},
{3, 31},
{3, 33},
{3, 35},
{3, 36},
{3, 37},
{3, 38},
{3, 39},
{3, 40},
{3, 41},
{3, 43},
{3, 44},
{3, 45},
{3, 46},
{3, 47},
{4, 5},
{4, 8},
{4, 9},
{4, 10},
{4, 11},
{4, 12},
{4, 14},
{4, 18},
{4, 20},
{4, 21},
{4, 23},
{4, 25},
{4, 27},
{4, 31},
{4, 33},
{4, 35},
{4, 37},
{4, 45},
{4, 48},
{4, 49},
{4, 50},
{5, 10},
{5, 14},
{5, 15},
{5, 16},
{5, 18},
{5, 20},
{5, 22},
{5, 23},
{5, 25},
{5, 28},
{5, 29},
{5, 31},
{5, 32},
{5, 33},
{5, 37},
{5, 45},
{5, 48},
{5, 49},
{5, 50},
{6, 7},
{6, 9},
{6, 10},
{6, 15},
{6, 16},
{6, 17},
{6, 20},
{6, 22},
{6, 24},
{6, 25},
{6, 30},
{6, 31},
{6, 32},
{6, 34},
{6, 35},
{6, 41},
{6, 44},
{6, 46},
{6, 49},
{7, 8},
{7, 9},
{7, 10},
{7, 12},
{7, 13},
{7, 14},
{7, 16},
{7, 17},
{7, 19},
{7, 20},
{7, 21},
{7, 26},
{7, 29},
{7, 33},
{7, 34},
{7, 35},
{7, 36},
{7, 37},
{7, 38},
{7, 44},
{7, 45},
{7, 47},
{7, 50},
{8, 10},
{8, 11},
{8, 12},
{8, 13},
{8, 14},
{8, 15},
{8, 16},
{8, 17},
{8, 19},
{8, 23},
{8, 24},
{8, 26},
{8, 27},
{8, 29},
{8, 32},
{8, 33},
{8, 34},
{8, 35},
{8, 36},
{8, 42},
{8, 43},
{8, 45},
{8, 46},
{8, 48},
{8, 50},
{9, 11},
{9, 14},
{9, 15},
{9, 19},
{9, 20},
{9, 21},
{9, 22},
{9, 23},
{9, 26},
{9, 28},
{9, 29},
{9, 31},
{9, 32},
{9, 33},
{9, 35},
{9, 36},
{9, 37},
{9, 38},
{9, 39},
{9, 43},
{9, 47},
{9, 48},
{9, 50},
{10, 11},
{10, 13},
{10, 15},
{10, 17},
{10, 19},
{10, 22},
{10, 23},
{10, 27},
{10, 28},
{10, 30},
{10, 31},
{10, 34},
{10, 40},
{10, 41},
{10, 43},
{10, 44},
{10, 45},
{10, 47},
{10, 48},
{11, 12},
{11, 13},
{11, 14},
{11, 15},
{11, 17},
{11, 20},
{11, 21},
{11, 22},
{11, 23},
{11, 25},
{11, 26},
{11, 28},
{11, 33},
{11, 37},
{11, 38},
{11, 39},
{11, 40},
{11, 42},
{11, 45},
{11, 47},
{11, 49},
{12, 15},
{12, 16},
{12, 17},
{12, 18},
{12, 21},
{12, 23},
{12, 26},
{12, 27},
{12, 28},
{12, 29},
{12, 30},
{12, 34},
{12, 39},
{12, 42},
{12, 45},
{12, 46},
{12, 47},
{13, 15},
{13, 16},
{13, 18},
{13, 21},
{13, 22},
{13, 24},
{13, 26},
{13, 27},
{13, 29},
{13, 31},
{13, 32},
{13, 35},
{13, 36},
{13, 38},
{13, 40},
{13, 41},
{13, 44},
{13, 46},
{13, 48},
{14, 17},
{14, 19},
{14, 20},
{14, 21},
{14, 22},
{14, 24},
{14, 27},
{14, 28},
{14, 29},
{14, 31},
{14, 32},
{14, 33},
{14, 35},
{14, 38},
{14, 41},
{14, 42},
{14, 43},
{15, 18},
{15, 20},
{15, 21},
{15, 22},
{15, 23},
{15, 24},
{15, 26},
{15, 27},
{15, 29},
{15, 31},
{15, 33},
{15, 34},
{15, 35},
{15, 39},
{15, 40},
{15, 41},
{15, 42},
{15, 43},
{15, 45},
{15, 46},
{16, 17},
{16, 18},
{16, 19},
{16, 20},
{16, 21},
{16, 22},
{16, 23},
{16, 24},
{16, 29},
{16, 31},
{16, 32},
{16, 33},
{16, 35},
{16, 37},
{16, 38},
{16, 39},
{16, 40},
{16, 45},
{16, 46},
{16, 47},
{16, 48},
{17, 20},
{17, 25},
{17, 26},
{17, 27},
{17, 28},
{17, 34},
{17, 35},
{17, 37},
{17, 38},
{17, 39},
{17, 40},
{17, 44},
{17, 45},
{17, 47},
{17, 48},
{17, 49},
{17, 50},
{18, 20},
{18, 21},
{18, 23},
{18, 30},
{18, 31},
{18, 32},
{18, 33},
{18, 34},
{18, 35},
{18, 37},
{18, 39},
{18, 43},
{18, 44},
{18, 45},
{18, 46},
{18, 49},
{19, 21},
{19, 24},
{19, 27},
{19, 28},
{19, 29},
{19, 30},
{19, 34},
{19, 35},
{19, 36},
{19, 37},
{19, 38},
{19, 39},
{19, 42},
{19, 43},
{19, 45},
{19, 46},
{19, 47},
{19, 49},
{20, 21},
{20, 23},
{20, 24},
{20, 25},
{20, 27},
{20, 28},
{20, 29},
{20, 30},
{20, 32},
{20, 36},
{20, 41},
{20, 44},
{20, 45},
{20, 47},
{20, 48},
{20, 49},
{21, 24},
{21, 25},
{21, 26},
{21, 28},
{21, 29},
{21, 30},
{21, 31},
{21, 34},
{21, 36},
{21, 37},
{21, 40},
{21, 47},
{21, 48},
{21, 49},
{21, 50},
{22, 23},
{22, 24},
{22, 27},
{22, 29},
{22, 33},
{22, 34},
{22, 37},
{22, 39},
{22, 41},
{22, 45},
{22, 46},
{22, 48},
{22, 49},
{23, 25},
{23, 26},
{23, 27},
{23, 28},
{23, 30},
{23, 31},
{23, 32},
{23, 33},
{23, 34},
{23, 35},
{23, 40},
{23, 41},
{23, 42},
{23, 43},
{23, 50},
{24, 25},
{24, 26},
{24, 28},
{24, 29},
{24, 30},
{24, 31},
{24, 32},
{24, 34},
{24, 36},
{24, 37},
{24, 38},
{24, 40},
{24, 43},
{24, 44},
{24, 45},
{24, 46},
{24, 47},
{24, 50},
{25, 28},
{25, 30},
{25, 32},
{25, 33},
{25, 34},
{25, 35},
{25, 36},
{25, 38},
{25, 41},
{25, 43},
{25, 46},
{26, 28},
{26, 29},
{26, 31},
{26, 34},
{26, 35},
{26, 36},
{26, 38},
{26, 40},
{26, 41},
{26, 42},
{26, 45},
{26, 47},
{26, 48},
{26, 50},
{27, 29},
{27, 31},
{27, 32},
{27, 33},
{27, 34},
{27, 39},
{27, 40},
{27, 41},
{27, 42},
{27, 44},
{27, 49},
{28, 29},
{28, 30},
{28, 32},
{28, 33},
{28, 34},
{28, 35},
{28, 36},
{28, 38},
{28, 39},
{28, 42},
{28, 44},
{28, 46},
{28, 47},
{28, 48},
{28, 49},
{28, 50},
{29, 30},
{29, 31},
{29, 33},
{29, 34},
{29, 35},
{29, 42},
{29, 45},
{29, 47},
{29, 48},
{30, 31},
{30, 32},
{30, 35},
{30, 37},
{30, 41},
{30, 43},
{30, 44},
{30, 48},
{30, 50},
{31, 33},
{31, 34},
{31, 36},
{31, 40},
{31, 41},
{31, 42},
{31, 45},
{31, 48},
{31, 49},
{31, 50},
{32, 34},
{32, 35},
{32, 40},
{32, 41},
{32, 42},
{32, 45},
{32, 48},
{32, 49},
{32, 50},
{33, 34},
{33, 35},
{33, 38},
{33, 39},
{33, 40},
{33, 41},
{33, 43},
{33, 45},
{33, 46},
{33, 50},
{34, 35},
{34, 36},
{34, 38},
{34, 40},
{34, 41},
{34, 42},
{34, 43},
{34, 46},
{34, 47},
{34, 48},
{34, 50},
{35, 36},
{35, 37},
{35, 40},
{35, 41},
{35, 42},
{35, 43},
{35, 47},
{36, 37},
{36, 38},
{36, 39},
{36, 42},
{36, 45},
{36, 47},
{37, 38},
{37, 41},
{37, 45},
{37, 46},
{37, 47},
{37, 49},
{37, 50},
{38, 42},
{38, 43},
{38, 45},
{38, 47},
{38, 48},
{39, 40},
{39, 46},
{39, 48},
{39, 49},
{39, 50},
{40, 41},
{40, 43},
{40, 45},
{40, 47},
{40, 49},
{41, 42},
{41, 44},
{41, 46},
{41, 47},
{41, 48},
{41, 50},
{42, 43},
{42, 44},
{42, 45},
{42, 47},
{42, 48},
{42, 49},
{42, 50},
{43, 45},
{43, 47},
{43, 49},
{44, 45},
{44, 47},
{44, 48},
{45, 47},
{45, 49},
{45, 50},
{46, 48},
{46, 49},
{46, 50},
{47, 50},
{48, 50},
{49, 50}}
